
;this file is automatically generated: Tue Feb 23 13:38:05 CST 2021

;declarations generated

(declare-fun oclExcludes ( Int Int) Bool)
(declare-fun Cardinality ( Int) Int)
(declare-fun type_3ff0bd75_7ff1_4a09_8abf_68d880f9cfef_Class3 ( Int) Bool)
(declare-fun type_3ff0bd75_7ff1_4a09_8abf_68d880f9cfef_Class4 ( Int) Bool)
(declare-fun type_3ff0bd75_7ff1_4a09_8abf_68d880f9cfef_Class5 ( Int) Bool)
(declare-fun type_3ff0bd75_7ff1_4a09_8abf_68d880f9cfef_Class6 ( Int) Bool)
(declare-fun type_3ff0bd75_7ff1_4a09_8abf_68d880f9cfef_Class0 ( Int) Bool)
(declare-fun type_3ff0bd75_7ff1_4a09_8abf_68d880f9cfef_Class1 ( Int) Bool)
(declare-fun type_3ff0bd75_7ff1_4a09_8abf_68d880f9cfef_Class2 ( Int) Bool)
(declare-fun type_3ff0bd75_7ff1_4a09_8abf_68d880f9cfef_Class7 ( Int) Bool)
(declare-fun type_3ff0bd75_7ff1_4a09_8abf_68d880f9cfef_Class8 ( Int) Bool)
(declare-fun type_3ff0bd75_7ff1_4a09_8abf_68d880f9cfef_Class9 ( Int) Bool)
(declare-fun obj_e8a3f1e1_cdb7_4705_b909_595641cdc40e ( Int) Int)
(declare-fun oclSelect ( Int Bool) Int)
(declare-fun class6_Class6IntAttr4 ( Int) Int)
(declare-fun type_3ff0bd75_7ff1_4a09_8abf_68d880f9cfef_Class31 ( Int) Bool)
(declare-fun type_3ff0bd75_7ff1_4a09_8abf_68d880f9cfef_Class30 ( Int) Bool)
(declare-fun type_3ff0bd75_7ff1_4a09_8abf_68d880f9cfef_Class33 ( Int) Bool)
(declare-fun type_3ff0bd75_7ff1_4a09_8abf_68d880f9cfef_Class32 ( Int) Bool)
(declare-fun type_3ff0bd75_7ff1_4a09_8abf_68d880f9cfef_Class39 ( Int) Bool)
(declare-fun type_3ff0bd75_7ff1_4a09_8abf_68d880f9cfef_Class38 ( Int) Bool)
(declare-fun type_3ff0bd75_7ff1_4a09_8abf_68d880f9cfef_Class35 ( Int) Bool)
(declare-fun type_3ff0bd75_7ff1_4a09_8abf_68d880f9cfef_Class34 ( Int) Bool)
(declare-fun type_3ff0bd75_7ff1_4a09_8abf_68d880f9cfef_Class37 ( Int) Bool)
(declare-fun type_3ff0bd75_7ff1_4a09_8abf_68d880f9cfef_Class36 ( Int) Bool)
(declare-fun type_3ff0bd75_7ff1_4a09_8abf_68d880f9cfef_Class42 ( Int) Bool)
(declare-fun type_3ff0bd75_7ff1_4a09_8abf_68d880f9cfef_Class41 ( Int) Bool)
(declare-fun type_3ff0bd75_7ff1_4a09_8abf_68d880f9cfef_Class44 ( Int) Bool)
(declare-fun type_3ff0bd75_7ff1_4a09_8abf_68d880f9cfef_Class43 ( Int) Bool)
(declare-fun type_3ff0bd75_7ff1_4a09_8abf_68d880f9cfef_Class40 ( Int) Bool)
(declare-fun Enum0 ( Int) Int)
(declare-fun Enum1 ( Int) Int)
(declare-fun Enum2 ( Int) Int)
(declare-fun type_3ff0bd75_7ff1_4a09_8abf_68d880f9cfef_Class45 ( Int) Bool)
(declare-fun type_3ff0bd75_7ff1_4a09_8abf_68d880f9cfef_Class11 ( Int) Bool)
(declare-fun type_3ff0bd75_7ff1_4a09_8abf_68d880f9cfef_Class10 ( Int) Bool)
(declare-fun container_ ( Int) Int)
(declare-fun type_3ff0bd75_7ff1_4a09_8abf_68d880f9cfef_Class17 ( Int) Bool)
(declare-fun type_3ff0bd75_7ff1_4a09_8abf_68d880f9cfef_Class16 ( Int) Bool)
(declare-fun type_3ff0bd75_7ff1_4a09_8abf_68d880f9cfef_Class19 ( Int) Bool)
(declare-fun type_3ff0bd75_7ff1_4a09_8abf_68d880f9cfef_Class18 ( Int) Bool)
(declare-fun type_3ff0bd75_7ff1_4a09_8abf_68d880f9cfef_Class13 ( Int) Bool)
(declare-fun type_3ff0bd75_7ff1_4a09_8abf_68d880f9cfef_Class12 ( Int) Bool)
(declare-fun type_3ff0bd75_7ff1_4a09_8abf_68d880f9cfef_Class15 ( Int) Bool)
(declare-fun type_3ff0bd75_7ff1_4a09_8abf_68d880f9cfef_Class14 ( Int) Bool)
(declare-fun type_3ff0bd75_7ff1_4a09_8abf_68d880f9cfef_Class20 ( Int) Bool)
(declare-fun type_3ff0bd75_7ff1_4a09_8abf_68d880f9cfef_Class22 ( Int) Bool)
(declare-fun type_3ff0bd75_7ff1_4a09_8abf_68d880f9cfef_Class21 ( Int) Bool)
(declare-fun type_3ff0bd75_7ff1_4a09_8abf_68d880f9cfef_Class28 ( Int) Bool)
(declare-fun type_3ff0bd75_7ff1_4a09_8abf_68d880f9cfef_Class27 ( Int) Bool)
(declare-fun type_3ff0bd75_7ff1_4a09_8abf_68d880f9cfef_Class29 ( Int) Bool)
(declare-fun type_3ff0bd75_7ff1_4a09_8abf_68d880f9cfef_Class24 ( Int) Bool)
(declare-fun type_3ff0bd75_7ff1_4a09_8abf_68d880f9cfef_Class23 ( Int) Bool)
(declare-fun type_3ff0bd75_7ff1_4a09_8abf_68d880f9cfef_Class26 ( Int) Bool)
(declare-fun type_3ff0bd75_7ff1_4a09_8abf_68d880f9cfef_Class25 ( Int) Bool)
(declare-fun oclIncludes ( Int Int) Bool)
(declare-fun ObjAt ( Int Int) Int)

;formula(s) generated
(assert (! (forall ((v Int)) (=> (and (and (and (and ( type_3ff0bd75_7ff1_4a09_8abf_68d880f9cfef_Class6 v )  ( type_3ff0bd75_7ff1_4a09_8abf_68d880f9cfef_Class22 v ) ) ( type_3ff0bd75_7ff1_4a09_8abf_68d880f9cfef_Class35 v ) ) ( type_3ff0bd75_7ff1_4a09_8abf_68d880f9cfef_Class2 v ) ) ( type_3ff0bd75_7ff1_4a09_8abf_68d880f9cfef_Class42 v ) ) (< ( class6_Class6IntAttr4 ( obj_e8a3f1e1_cdb7_4705_b909_595641cdc40e v )  )  9))):named l0))
(assert (! (exists ((o Int)) (and (and (and ( type_3ff0bd75_7ff1_4a09_8abf_68d880f9cfef_Class0 ( obj_e8a3f1e1_cdb7_4705_b909_595641cdc40e o )  )  ( type_3ff0bd75_7ff1_4a09_8abf_68d880f9cfef_Class22 ( obj_e8a3f1e1_cdb7_4705_b909_595641cdc40e o )  ) ) ( type_3ff0bd75_7ff1_4a09_8abf_68d880f9cfef_Class35 ( obj_e8a3f1e1_cdb7_4705_b909_595641cdc40e o )  ) ) ( type_3ff0bd75_7ff1_4a09_8abf_68d880f9cfef_Class2 ( obj_e8a3f1e1_cdb7_4705_b909_595641cdc40e o )  ) )):named c0))
(assert (! (exists ((o Int)) ( type_3ff0bd75_7ff1_4a09_8abf_68d880f9cfef_Class1 ( obj_e8a3f1e1_cdb7_4705_b909_595641cdc40e o )  ) ):named c1))
(assert (! (exists ((o Int)) (and (and (and (and ( type_3ff0bd75_7ff1_4a09_8abf_68d880f9cfef_Class10 ( obj_e8a3f1e1_cdb7_4705_b909_595641cdc40e o )  )  ( type_3ff0bd75_7ff1_4a09_8abf_68d880f9cfef_Class16 ( obj_e8a3f1e1_cdb7_4705_b909_595641cdc40e o )  ) ) ( type_3ff0bd75_7ff1_4a09_8abf_68d880f9cfef_Class15 ( obj_e8a3f1e1_cdb7_4705_b909_595641cdc40e o )  ) ) ( type_3ff0bd75_7ff1_4a09_8abf_68d880f9cfef_Class41 ( obj_e8a3f1e1_cdb7_4705_b909_595641cdc40e o )  ) ) ( type_3ff0bd75_7ff1_4a09_8abf_68d880f9cfef_Class2 ( obj_e8a3f1e1_cdb7_4705_b909_595641cdc40e o )  ) )):named c2))
(assert (! (exists ((o Int)) ( type_3ff0bd75_7ff1_4a09_8abf_68d880f9cfef_Class11 ( obj_e8a3f1e1_cdb7_4705_b909_595641cdc40e o )  ) ):named c3))
(assert (! (exists ((o Int)) (and (and (and (and ( type_3ff0bd75_7ff1_4a09_8abf_68d880f9cfef_Class12 ( obj_e8a3f1e1_cdb7_4705_b909_595641cdc40e o )  )  ( type_3ff0bd75_7ff1_4a09_8abf_68d880f9cfef_Class22 ( obj_e8a3f1e1_cdb7_4705_b909_595641cdc40e o )  ) ) ( type_3ff0bd75_7ff1_4a09_8abf_68d880f9cfef_Class35 ( obj_e8a3f1e1_cdb7_4705_b909_595641cdc40e o )  ) ) ( type_3ff0bd75_7ff1_4a09_8abf_68d880f9cfef_Class0 ( obj_e8a3f1e1_cdb7_4705_b909_595641cdc40e o )  ) ) ( type_3ff0bd75_7ff1_4a09_8abf_68d880f9cfef_Class2 ( obj_e8a3f1e1_cdb7_4705_b909_595641cdc40e o )  ) )):named c4))
(assert (! (exists ((o Int)) (and (and (and ( type_3ff0bd75_7ff1_4a09_8abf_68d880f9cfef_Class13 ( obj_e8a3f1e1_cdb7_4705_b909_595641cdc40e o )  )  ( type_3ff0bd75_7ff1_4a09_8abf_68d880f9cfef_Class16 ( obj_e8a3f1e1_cdb7_4705_b909_595641cdc40e o )  ) ) ( type_3ff0bd75_7ff1_4a09_8abf_68d880f9cfef_Class15 ( obj_e8a3f1e1_cdb7_4705_b909_595641cdc40e o )  ) ) ( type_3ff0bd75_7ff1_4a09_8abf_68d880f9cfef_Class2 ( obj_e8a3f1e1_cdb7_4705_b909_595641cdc40e o )  ) )):named c5))
(assert (! (exists ((o Int)) (and (and (and (and (and (and (and ( type_3ff0bd75_7ff1_4a09_8abf_68d880f9cfef_Class14 ( obj_e8a3f1e1_cdb7_4705_b909_595641cdc40e o )  )  ( type_3ff0bd75_7ff1_4a09_8abf_68d880f9cfef_Class33 ( obj_e8a3f1e1_cdb7_4705_b909_595641cdc40e o )  ) ) ( type_3ff0bd75_7ff1_4a09_8abf_68d880f9cfef_Class13 ( obj_e8a3f1e1_cdb7_4705_b909_595641cdc40e o )  ) ) ( type_3ff0bd75_7ff1_4a09_8abf_68d880f9cfef_Class16 ( obj_e8a3f1e1_cdb7_4705_b909_595641cdc40e o )  ) ) ( type_3ff0bd75_7ff1_4a09_8abf_68d880f9cfef_Class15 ( obj_e8a3f1e1_cdb7_4705_b909_595641cdc40e o )  ) ) ( type_3ff0bd75_7ff1_4a09_8abf_68d880f9cfef_Class4 ( obj_e8a3f1e1_cdb7_4705_b909_595641cdc40e o )  ) ) ( type_3ff0bd75_7ff1_4a09_8abf_68d880f9cfef_Class41 ( obj_e8a3f1e1_cdb7_4705_b909_595641cdc40e o )  ) ) ( type_3ff0bd75_7ff1_4a09_8abf_68d880f9cfef_Class2 ( obj_e8a3f1e1_cdb7_4705_b909_595641cdc40e o )  ) )):named c6))
(assert (! (exists ((o Int)) (and ( type_3ff0bd75_7ff1_4a09_8abf_68d880f9cfef_Class15 ( obj_e8a3f1e1_cdb7_4705_b909_595641cdc40e o )  )  ( type_3ff0bd75_7ff1_4a09_8abf_68d880f9cfef_Class2 ( obj_e8a3f1e1_cdb7_4705_b909_595641cdc40e o )  ) )):named c7))
(assert (! (exists ((o Int)) (and (and ( type_3ff0bd75_7ff1_4a09_8abf_68d880f9cfef_Class16 ( obj_e8a3f1e1_cdb7_4705_b909_595641cdc40e o )  )  ( type_3ff0bd75_7ff1_4a09_8abf_68d880f9cfef_Class15 ( obj_e8a3f1e1_cdb7_4705_b909_595641cdc40e o )  ) ) ( type_3ff0bd75_7ff1_4a09_8abf_68d880f9cfef_Class2 ( obj_e8a3f1e1_cdb7_4705_b909_595641cdc40e o )  ) )):named c8))
(assert (! (exists ((o Int)) (and (and (and (and ( type_3ff0bd75_7ff1_4a09_8abf_68d880f9cfef_Class17 ( obj_e8a3f1e1_cdb7_4705_b909_595641cdc40e o )  )  ( type_3ff0bd75_7ff1_4a09_8abf_68d880f9cfef_Class24 ( obj_e8a3f1e1_cdb7_4705_b909_595641cdc40e o )  ) ) ( type_3ff0bd75_7ff1_4a09_8abf_68d880f9cfef_Class26 ( obj_e8a3f1e1_cdb7_4705_b909_595641cdc40e o )  ) ) ( type_3ff0bd75_7ff1_4a09_8abf_68d880f9cfef_Class32 ( obj_e8a3f1e1_cdb7_4705_b909_595641cdc40e o )  ) ) ( type_3ff0bd75_7ff1_4a09_8abf_68d880f9cfef_Class2 ( obj_e8a3f1e1_cdb7_4705_b909_595641cdc40e o )  ) )):named c9))
(assert (! (exists ((o Int)) ( type_3ff0bd75_7ff1_4a09_8abf_68d880f9cfef_Class18 ( obj_e8a3f1e1_cdb7_4705_b909_595641cdc40e o )  ) ):named c10))
(assert (! (exists ((o Int)) ( type_3ff0bd75_7ff1_4a09_8abf_68d880f9cfef_Class19 ( obj_e8a3f1e1_cdb7_4705_b909_595641cdc40e o )  ) ):named c11))
(assert (! (exists ((o Int)) ( type_3ff0bd75_7ff1_4a09_8abf_68d880f9cfef_Class2 ( obj_e8a3f1e1_cdb7_4705_b909_595641cdc40e o )  ) ):named c12))
(assert (! (exists ((o Int)) (and (and ( type_3ff0bd75_7ff1_4a09_8abf_68d880f9cfef_Class20 ( obj_e8a3f1e1_cdb7_4705_b909_595641cdc40e o )  )  ( type_3ff0bd75_7ff1_4a09_8abf_68d880f9cfef_Class21 ( obj_e8a3f1e1_cdb7_4705_b909_595641cdc40e o )  ) ) ( type_3ff0bd75_7ff1_4a09_8abf_68d880f9cfef_Class2 ( obj_e8a3f1e1_cdb7_4705_b909_595641cdc40e o )  ) )):named c13))
(assert (! (exists ((o Int)) (and ( type_3ff0bd75_7ff1_4a09_8abf_68d880f9cfef_Class21 ( obj_e8a3f1e1_cdb7_4705_b909_595641cdc40e o )  )  ( type_3ff0bd75_7ff1_4a09_8abf_68d880f9cfef_Class2 ( obj_e8a3f1e1_cdb7_4705_b909_595641cdc40e o )  ) )):named c14))
(assert (! (exists ((o Int)) (and (and ( type_3ff0bd75_7ff1_4a09_8abf_68d880f9cfef_Class22 ( obj_e8a3f1e1_cdb7_4705_b909_595641cdc40e o )  )  ( type_3ff0bd75_7ff1_4a09_8abf_68d880f9cfef_Class35 ( obj_e8a3f1e1_cdb7_4705_b909_595641cdc40e o )  ) ) ( type_3ff0bd75_7ff1_4a09_8abf_68d880f9cfef_Class2 ( obj_e8a3f1e1_cdb7_4705_b909_595641cdc40e o )  ) )):named c15))
(assert (! (exists ((o Int)) (and (and (and (and (and (and ( type_3ff0bd75_7ff1_4a09_8abf_68d880f9cfef_Class23 ( obj_e8a3f1e1_cdb7_4705_b909_595641cdc40e o )  )  ( type_3ff0bd75_7ff1_4a09_8abf_68d880f9cfef_Class12 ( obj_e8a3f1e1_cdb7_4705_b909_595641cdc40e o )  ) ) ( type_3ff0bd75_7ff1_4a09_8abf_68d880f9cfef_Class22 ( obj_e8a3f1e1_cdb7_4705_b909_595641cdc40e o )  ) ) ( type_3ff0bd75_7ff1_4a09_8abf_68d880f9cfef_Class25 ( obj_e8a3f1e1_cdb7_4705_b909_595641cdc40e o )  ) ) ( type_3ff0bd75_7ff1_4a09_8abf_68d880f9cfef_Class35 ( obj_e8a3f1e1_cdb7_4705_b909_595641cdc40e o )  ) ) ( type_3ff0bd75_7ff1_4a09_8abf_68d880f9cfef_Class0 ( obj_e8a3f1e1_cdb7_4705_b909_595641cdc40e o )  ) ) ( type_3ff0bd75_7ff1_4a09_8abf_68d880f9cfef_Class2 ( obj_e8a3f1e1_cdb7_4705_b909_595641cdc40e o )  ) )):named c16))
(assert (! (exists ((o Int)) (and (and (and ( type_3ff0bd75_7ff1_4a09_8abf_68d880f9cfef_Class24 ( obj_e8a3f1e1_cdb7_4705_b909_595641cdc40e o )  )  ( type_3ff0bd75_7ff1_4a09_8abf_68d880f9cfef_Class26 ( obj_e8a3f1e1_cdb7_4705_b909_595641cdc40e o )  ) ) ( type_3ff0bd75_7ff1_4a09_8abf_68d880f9cfef_Class32 ( obj_e8a3f1e1_cdb7_4705_b909_595641cdc40e o )  ) ) ( type_3ff0bd75_7ff1_4a09_8abf_68d880f9cfef_Class2 ( obj_e8a3f1e1_cdb7_4705_b909_595641cdc40e o )  ) )):named c17))
(assert (! (exists ((o Int)) (and (and (and (and (and ( type_3ff0bd75_7ff1_4a09_8abf_68d880f9cfef_Class25 ( obj_e8a3f1e1_cdb7_4705_b909_595641cdc40e o )  )  ( type_3ff0bd75_7ff1_4a09_8abf_68d880f9cfef_Class12 ( obj_e8a3f1e1_cdb7_4705_b909_595641cdc40e o )  ) ) ( type_3ff0bd75_7ff1_4a09_8abf_68d880f9cfef_Class22 ( obj_e8a3f1e1_cdb7_4705_b909_595641cdc40e o )  ) ) ( type_3ff0bd75_7ff1_4a09_8abf_68d880f9cfef_Class35 ( obj_e8a3f1e1_cdb7_4705_b909_595641cdc40e o )  ) ) ( type_3ff0bd75_7ff1_4a09_8abf_68d880f9cfef_Class0 ( obj_e8a3f1e1_cdb7_4705_b909_595641cdc40e o )  ) ) ( type_3ff0bd75_7ff1_4a09_8abf_68d880f9cfef_Class2 ( obj_e8a3f1e1_cdb7_4705_b909_595641cdc40e o )  ) )):named c18))
(assert (! (exists ((o Int)) (and (and ( type_3ff0bd75_7ff1_4a09_8abf_68d880f9cfef_Class26 ( obj_e8a3f1e1_cdb7_4705_b909_595641cdc40e o )  )  ( type_3ff0bd75_7ff1_4a09_8abf_68d880f9cfef_Class32 ( obj_e8a3f1e1_cdb7_4705_b909_595641cdc40e o )  ) ) ( type_3ff0bd75_7ff1_4a09_8abf_68d880f9cfef_Class2 ( obj_e8a3f1e1_cdb7_4705_b909_595641cdc40e o )  ) )):named c19))
(assert (! (exists ((o Int)) (and ( type_3ff0bd75_7ff1_4a09_8abf_68d880f9cfef_Class27 ( obj_e8a3f1e1_cdb7_4705_b909_595641cdc40e o )  )  ( type_3ff0bd75_7ff1_4a09_8abf_68d880f9cfef_Class2 ( obj_e8a3f1e1_cdb7_4705_b909_595641cdc40e o )  ) )):named c20))
(assert (! (exists ((o Int)) ( type_3ff0bd75_7ff1_4a09_8abf_68d880f9cfef_Class28 ( obj_e8a3f1e1_cdb7_4705_b909_595641cdc40e o )  ) ):named c21))
(assert (! (exists ((o Int)) ( type_3ff0bd75_7ff1_4a09_8abf_68d880f9cfef_Class29 ( obj_e8a3f1e1_cdb7_4705_b909_595641cdc40e o )  ) ):named c22))
(assert (! (exists ((o Int)) ( type_3ff0bd75_7ff1_4a09_8abf_68d880f9cfef_Class3 ( obj_e8a3f1e1_cdb7_4705_b909_595641cdc40e o )  ) ):named c23))
(assert (! (exists ((o Int)) (and ( type_3ff0bd75_7ff1_4a09_8abf_68d880f9cfef_Class30 ( obj_e8a3f1e1_cdb7_4705_b909_595641cdc40e o )  )  ( type_3ff0bd75_7ff1_4a09_8abf_68d880f9cfef_Class2 ( obj_e8a3f1e1_cdb7_4705_b909_595641cdc40e o )  ) )):named c24))
(assert (! (exists ((o Int)) (and (and (and (and ( type_3ff0bd75_7ff1_4a09_8abf_68d880f9cfef_Class31 ( obj_e8a3f1e1_cdb7_4705_b909_595641cdc40e o )  )  ( type_3ff0bd75_7ff1_4a09_8abf_68d880f9cfef_Class16 ( obj_e8a3f1e1_cdb7_4705_b909_595641cdc40e o )  ) ) ( type_3ff0bd75_7ff1_4a09_8abf_68d880f9cfef_Class15 ( obj_e8a3f1e1_cdb7_4705_b909_595641cdc40e o )  ) ) ( type_3ff0bd75_7ff1_4a09_8abf_68d880f9cfef_Class41 ( obj_e8a3f1e1_cdb7_4705_b909_595641cdc40e o )  ) ) ( type_3ff0bd75_7ff1_4a09_8abf_68d880f9cfef_Class2 ( obj_e8a3f1e1_cdb7_4705_b909_595641cdc40e o )  ) )):named c25))
(assert (! (exists ((o Int)) (and ( type_3ff0bd75_7ff1_4a09_8abf_68d880f9cfef_Class32 ( obj_e8a3f1e1_cdb7_4705_b909_595641cdc40e o )  )  ( type_3ff0bd75_7ff1_4a09_8abf_68d880f9cfef_Class2 ( obj_e8a3f1e1_cdb7_4705_b909_595641cdc40e o )  ) )):named c26))
(assert (! (exists ((o Int)) (and (and (and (and (and ( type_3ff0bd75_7ff1_4a09_8abf_68d880f9cfef_Class33 ( obj_e8a3f1e1_cdb7_4705_b909_595641cdc40e o )  )  ( type_3ff0bd75_7ff1_4a09_8abf_68d880f9cfef_Class13 ( obj_e8a3f1e1_cdb7_4705_b909_595641cdc40e o )  ) ) ( type_3ff0bd75_7ff1_4a09_8abf_68d880f9cfef_Class16 ( obj_e8a3f1e1_cdb7_4705_b909_595641cdc40e o )  ) ) ( type_3ff0bd75_7ff1_4a09_8abf_68d880f9cfef_Class15 ( obj_e8a3f1e1_cdb7_4705_b909_595641cdc40e o )  ) ) ( type_3ff0bd75_7ff1_4a09_8abf_68d880f9cfef_Class41 ( obj_e8a3f1e1_cdb7_4705_b909_595641cdc40e o )  ) ) ( type_3ff0bd75_7ff1_4a09_8abf_68d880f9cfef_Class2 ( obj_e8a3f1e1_cdb7_4705_b909_595641cdc40e o )  ) )):named c27))
(assert (! (exists ((o Int)) ( type_3ff0bd75_7ff1_4a09_8abf_68d880f9cfef_Class34 ( obj_e8a3f1e1_cdb7_4705_b909_595641cdc40e o )  ) ):named c28))
(assert (! (exists ((o Int)) (and ( type_3ff0bd75_7ff1_4a09_8abf_68d880f9cfef_Class35 ( obj_e8a3f1e1_cdb7_4705_b909_595641cdc40e o )  )  ( type_3ff0bd75_7ff1_4a09_8abf_68d880f9cfef_Class2 ( obj_e8a3f1e1_cdb7_4705_b909_595641cdc40e o )  ) )):named c29))
(assert (! (exists ((o Int)) ( type_3ff0bd75_7ff1_4a09_8abf_68d880f9cfef_Class36 ( obj_e8a3f1e1_cdb7_4705_b909_595641cdc40e o )  ) ):named c30))
(assert (! (exists ((o Int)) ( type_3ff0bd75_7ff1_4a09_8abf_68d880f9cfef_Class37 ( obj_e8a3f1e1_cdb7_4705_b909_595641cdc40e o )  ) ):named c31))
(assert (! (exists ((o Int)) (and ( type_3ff0bd75_7ff1_4a09_8abf_68d880f9cfef_Class38 ( obj_e8a3f1e1_cdb7_4705_b909_595641cdc40e o )  )  ( type_3ff0bd75_7ff1_4a09_8abf_68d880f9cfef_Class2 ( obj_e8a3f1e1_cdb7_4705_b909_595641cdc40e o )  ) )):named c32))
(assert (! (exists ((o Int)) ( type_3ff0bd75_7ff1_4a09_8abf_68d880f9cfef_Class39 ( obj_e8a3f1e1_cdb7_4705_b909_595641cdc40e o )  ) ):named c33))
(assert (! (exists ((o Int)) (and (and (and (and (and (and ( type_3ff0bd75_7ff1_4a09_8abf_68d880f9cfef_Class4 ( obj_e8a3f1e1_cdb7_4705_b909_595641cdc40e o )  )  ( type_3ff0bd75_7ff1_4a09_8abf_68d880f9cfef_Class33 ( obj_e8a3f1e1_cdb7_4705_b909_595641cdc40e o )  ) ) ( type_3ff0bd75_7ff1_4a09_8abf_68d880f9cfef_Class13 ( obj_e8a3f1e1_cdb7_4705_b909_595641cdc40e o )  ) ) ( type_3ff0bd75_7ff1_4a09_8abf_68d880f9cfef_Class16 ( obj_e8a3f1e1_cdb7_4705_b909_595641cdc40e o )  ) ) ( type_3ff0bd75_7ff1_4a09_8abf_68d880f9cfef_Class15 ( obj_e8a3f1e1_cdb7_4705_b909_595641cdc40e o )  ) ) ( type_3ff0bd75_7ff1_4a09_8abf_68d880f9cfef_Class41 ( obj_e8a3f1e1_cdb7_4705_b909_595641cdc40e o )  ) ) ( type_3ff0bd75_7ff1_4a09_8abf_68d880f9cfef_Class2 ( obj_e8a3f1e1_cdb7_4705_b909_595641cdc40e o )  ) )):named c34))
(assert (! (exists ((o Int)) (and (and (and ( type_3ff0bd75_7ff1_4a09_8abf_68d880f9cfef_Class40 ( obj_e8a3f1e1_cdb7_4705_b909_595641cdc40e o )  )  ( type_3ff0bd75_7ff1_4a09_8abf_68d880f9cfef_Class21 ( obj_e8a3f1e1_cdb7_4705_b909_595641cdc40e o )  ) ) ( type_3ff0bd75_7ff1_4a09_8abf_68d880f9cfef_Class2 ( obj_e8a3f1e1_cdb7_4705_b909_595641cdc40e o )  ) ) ( type_3ff0bd75_7ff1_4a09_8abf_68d880f9cfef_Class20 ( obj_e8a3f1e1_cdb7_4705_b909_595641cdc40e o )  ) )):named c35))
(assert (! (exists ((o Int)) (and (and (and ( type_3ff0bd75_7ff1_4a09_8abf_68d880f9cfef_Class41 ( obj_e8a3f1e1_cdb7_4705_b909_595641cdc40e o )  )  ( type_3ff0bd75_7ff1_4a09_8abf_68d880f9cfef_Class16 ( obj_e8a3f1e1_cdb7_4705_b909_595641cdc40e o )  ) ) ( type_3ff0bd75_7ff1_4a09_8abf_68d880f9cfef_Class15 ( obj_e8a3f1e1_cdb7_4705_b909_595641cdc40e o )  ) ) ( type_3ff0bd75_7ff1_4a09_8abf_68d880f9cfef_Class2 ( obj_e8a3f1e1_cdb7_4705_b909_595641cdc40e o )  ) )):named c36))
(assert (! (exists ((o Int)) (and (and (and ( type_3ff0bd75_7ff1_4a09_8abf_68d880f9cfef_Class42 ( obj_e8a3f1e1_cdb7_4705_b909_595641cdc40e o )  )  ( type_3ff0bd75_7ff1_4a09_8abf_68d880f9cfef_Class22 ( obj_e8a3f1e1_cdb7_4705_b909_595641cdc40e o )  ) ) ( type_3ff0bd75_7ff1_4a09_8abf_68d880f9cfef_Class35 ( obj_e8a3f1e1_cdb7_4705_b909_595641cdc40e o )  ) ) ( type_3ff0bd75_7ff1_4a09_8abf_68d880f9cfef_Class2 ( obj_e8a3f1e1_cdb7_4705_b909_595641cdc40e o )  ) )):named c37))
(assert (! (exists ((o Int)) ( type_3ff0bd75_7ff1_4a09_8abf_68d880f9cfef_Class43 ( obj_e8a3f1e1_cdb7_4705_b909_595641cdc40e o )  ) ):named c38))
(assert (! (exists ((o Int)) (and (and (and (and (and (and ( type_3ff0bd75_7ff1_4a09_8abf_68d880f9cfef_Class44 ( obj_e8a3f1e1_cdb7_4705_b909_595641cdc40e o )  )  ( type_3ff0bd75_7ff1_4a09_8abf_68d880f9cfef_Class33 ( obj_e8a3f1e1_cdb7_4705_b909_595641cdc40e o )  ) ) ( type_3ff0bd75_7ff1_4a09_8abf_68d880f9cfef_Class13 ( obj_e8a3f1e1_cdb7_4705_b909_595641cdc40e o )  ) ) ( type_3ff0bd75_7ff1_4a09_8abf_68d880f9cfef_Class16 ( obj_e8a3f1e1_cdb7_4705_b909_595641cdc40e o )  ) ) ( type_3ff0bd75_7ff1_4a09_8abf_68d880f9cfef_Class15 ( obj_e8a3f1e1_cdb7_4705_b909_595641cdc40e o )  ) ) ( type_3ff0bd75_7ff1_4a09_8abf_68d880f9cfef_Class41 ( obj_e8a3f1e1_cdb7_4705_b909_595641cdc40e o )  ) ) ( type_3ff0bd75_7ff1_4a09_8abf_68d880f9cfef_Class2 ( obj_e8a3f1e1_cdb7_4705_b909_595641cdc40e o )  ) )):named c39))
(assert (! (exists ((o Int)) ( type_3ff0bd75_7ff1_4a09_8abf_68d880f9cfef_Class45 ( obj_e8a3f1e1_cdb7_4705_b909_595641cdc40e o )  ) ):named c40))
(assert (! (exists ((o Int)) ( type_3ff0bd75_7ff1_4a09_8abf_68d880f9cfef_Class5 ( obj_e8a3f1e1_cdb7_4705_b909_595641cdc40e o )  ) ):named c41))
(assert (! (exists ((o Int)) (and (and (and (and ( type_3ff0bd75_7ff1_4a09_8abf_68d880f9cfef_Class6 ( obj_e8a3f1e1_cdb7_4705_b909_595641cdc40e o )  )  ( type_3ff0bd75_7ff1_4a09_8abf_68d880f9cfef_Class22 ( obj_e8a3f1e1_cdb7_4705_b909_595641cdc40e o )  ) ) ( type_3ff0bd75_7ff1_4a09_8abf_68d880f9cfef_Class35 ( obj_e8a3f1e1_cdb7_4705_b909_595641cdc40e o )  ) ) ( type_3ff0bd75_7ff1_4a09_8abf_68d880f9cfef_Class2 ( obj_e8a3f1e1_cdb7_4705_b909_595641cdc40e o )  ) ) ( type_3ff0bd75_7ff1_4a09_8abf_68d880f9cfef_Class42 ( obj_e8a3f1e1_cdb7_4705_b909_595641cdc40e o )  ) )):named c42))
(assert (! (exists ((o Int)) ( type_3ff0bd75_7ff1_4a09_8abf_68d880f9cfef_Class7 ( obj_e8a3f1e1_cdb7_4705_b909_595641cdc40e o )  ) ):named c43))
(assert (! (exists ((o Int)) (and (and (and (and (and ( type_3ff0bd75_7ff1_4a09_8abf_68d880f9cfef_Class8 ( obj_e8a3f1e1_cdb7_4705_b909_595641cdc40e o )  )  ( type_3ff0bd75_7ff1_4a09_8abf_68d880f9cfef_Class16 ( obj_e8a3f1e1_cdb7_4705_b909_595641cdc40e o )  ) ) ( type_3ff0bd75_7ff1_4a09_8abf_68d880f9cfef_Class15 ( obj_e8a3f1e1_cdb7_4705_b909_595641cdc40e o )  ) ) ( type_3ff0bd75_7ff1_4a09_8abf_68d880f9cfef_Class41 ( obj_e8a3f1e1_cdb7_4705_b909_595641cdc40e o )  ) ) ( type_3ff0bd75_7ff1_4a09_8abf_68d880f9cfef_Class10 ( obj_e8a3f1e1_cdb7_4705_b909_595641cdc40e o )  ) ) ( type_3ff0bd75_7ff1_4a09_8abf_68d880f9cfef_Class2 ( obj_e8a3f1e1_cdb7_4705_b909_595641cdc40e o )  ) )):named c44))
(assert (! (exists ((o Int)) (and (and (and (and (and (and (and ( type_3ff0bd75_7ff1_4a09_8abf_68d880f9cfef_Class9 ( obj_e8a3f1e1_cdb7_4705_b909_595641cdc40e o )  )  ( type_3ff0bd75_7ff1_4a09_8abf_68d880f9cfef_Class22 ( obj_e8a3f1e1_cdb7_4705_b909_595641cdc40e o )  ) ) ( type_3ff0bd75_7ff1_4a09_8abf_68d880f9cfef_Class35 ( obj_e8a3f1e1_cdb7_4705_b909_595641cdc40e o )  ) ) ( type_3ff0bd75_7ff1_4a09_8abf_68d880f9cfef_Class16 ( obj_e8a3f1e1_cdb7_4705_b909_595641cdc40e o )  ) ) ( type_3ff0bd75_7ff1_4a09_8abf_68d880f9cfef_Class15 ( obj_e8a3f1e1_cdb7_4705_b909_595641cdc40e o )  ) ) ( type_3ff0bd75_7ff1_4a09_8abf_68d880f9cfef_Class0 ( obj_e8a3f1e1_cdb7_4705_b909_595641cdc40e o )  ) ) ( type_3ff0bd75_7ff1_4a09_8abf_68d880f9cfef_Class41 ( obj_e8a3f1e1_cdb7_4705_b909_595641cdc40e o )  ) ) ( type_3ff0bd75_7ff1_4a09_8abf_68d880f9cfef_Class2 ( obj_e8a3f1e1_cdb7_4705_b909_595641cdc40e o )  ) )):named c45))

 ;end of formula 